proyfinal/src/viki/013/experimentInOfficeAgust.take6.output/0eef960b-6330-4745-9d46-e02b1320e511.als.dat
{'cnf.clauses': '118081',
 'cnf.totvars': '69608',
 'conflict literals': '25',
 'conflicts': '15',
 'decisions': '1790',
 'memused.mb': '14.62',
 'outcome': 'UNSAT',
 'propagations': '23651',
 'restarts': '1',
 'solver.msecs': 30,
 'task.msecs': 82}
