proyfinal/src/viki/013/experimentInOfficeAgust.take6.output/0eef960b-6330-4745-9d46-e02b1320e511.als.out
Reading from standard input... Use '--help' for help.
============================[ Problem Statistics ]=============================
|                                                                             |
|  Number of variables:         69608                                         |
|  Number of clauses:          118081                                         |
|  Parse time:                   0.02 s                                       |
|                                                                             |
============================[ Search Statistics ]==============================
| Conflicts |          ORIGINAL         |          LEARNT          | Progress |
|           |    Vars  Clauses Literals |    Limit  Clauses Lit/Cl |          |
===============================================================================
===============================================================================
restarts              : 1
conflicts             : 15             (488 /sec)
decisions             : 1790           (0.00 % random) (58217 /sec)
propagations          : 23651          (769213 /sec)
conflict literals     : 25             (0.00 % deleted)
Memory used           : 14.62 MB
CPU time              : 0.030747 s

UNSATISFIABLE
